p cnf 200 1110
-101 -93 0
-101 -8 0
-101 -4 0
-101 6 0
-101 52 0
-101 -51 0
-101 88 0
-101 -3 0
-101 2 0
-101 46 0
101 93 8 4 -6 -52 51 -88 3 -2 -46 0
-102 59 0
-102 66 0
-102 -88 0
-102 53 0
-102 -72 0
-102 -36 0
-102 -100 0
-102 12 0
-102 79 0
-102 71 0
102 -59 -66 88 -53 72 36 100 -12 -79 -71 0
-103 -91 0
-103 63 0
-103 1 0
-103 -90 0
-103 52 0
-103 -74 0
-103 -37 0
-103 17 0
-103 -39 0
-103 85 0
103 91 -63 -1 90 -52 74 37 -17 39 -85 0
-104 -42 0
-104 -37 0
-104 -99 0
-104 36 0
-104 -94 0
-104 -12 0
-104 48 0
-104 76 0
-104 57 0
-104 3 0
104 42 37 99 -36 94 12 -48 -76 -57 -3 0
-105 -45 0
-105 -12 0
-105 27 0
-105 -65 0
-105 83 0
-105 -96 0
-105 97 0
-105 74 0
-105 -98 0
-105 -8 0
105 45 12 -27 65 -83 96 -97 -74 98 8 0
-106 -35 0
-106 49 0
-106 3 0
-106 86 0
-106 -26 0
-106 -25 0
-106 -56 0
-106 -15 0
-106 -28 0
-106 32 0
106 35 -49 -3 -86 26 25 56 15 28 -32 0
-107 -81 0
-107 1 0
-107 63 0
-107 70 0
-107 -78 0
-107 8 0
-107 93 0
-107 31 0
-107 -75 0
-107 24 0
107 81 -1 -63 -70 78 -8 -93 -31 75 -24 0
-108 98 0
-108 96 0
-108 -82 0
-108 40 0
-108 -75 0
-108 -78 0
-108 -43 0
-108 10 0
-108 -65 0
-108 -54 0
108 -98 -96 82 -40 75 78 43 -10 65 54 0
-109 -91 0
-109 -68 0
-109 40 0
-109 -73 0
-109 -56 0
-109 -63 0
-109 -92 0
-109 -32 0
-109 -10 0
-109 67 0
109 91 68 -40 73 56 63 92 32 10 -67 0
-110 -86 0
-110 -37 0
-110 17 0
-110 93 0
-110 15 0
-110 -84 0
-110 12 0
-110 39 0
-110 -3 0
-110 11 0
110 86 37 -17 -93 -15 84 -12 -39 3 -11 0
101 102 103 104 105 106 107 108 109 110 0
-111 -74 0
-111 -23 0
-111 -31 0
-111 -51 0
-111 -75 0
-111 -30 0
-111 -19 0
-111 -65 0
-111 -93 0
-111 34 0
111 74 23 31 51 75 30 19 65 93 -34 0
-112 44 0
-112 -79 0
-112 -22 0
-112 -53 0
-112 -80 0
-112 -50 0
-112 -10 0
-112 -86 0
-112 -39 0
-112 42 0
112 -44 79 22 53 80 50 10 86 39 -42 0
-113 90 0
-113 28 0
-113 -43 0
-113 -19 0
-113 -59 0
-113 -18 0
-113 58 0
-113 98 0
-113 -63 0
-113 53 0
113 -90 -28 43 19 59 18 -58 -98 63 -53 0
-114 99 0
-114 21 0
-114 28 0
-114 74 0
-114 33 0
-114 11 0
-114 19 0
-114 -59 0
-114 -98 0
-114 -71 0
114 -99 -21 -28 -74 -33 -11 -19 59 98 71 0
-115 25 0
-115 -10 0
-115 -61 0
-115 30 0
-115 -1 0
-115 73 0
-115 -60 0
-115 -7 0
-115 -68 0
-115 6 0
115 -25 10 61 -30 1 -73 60 7 68 -6 0
-116 -42 0
-116 -54 0
-116 -70 0
-116 96 0
-116 -76 0
-116 -37 0
-116 -19 0
-116 -28 0
-116 32 0
-116 8 0
116 42 54 70 -96 76 37 19 28 -32 -8 0
-117 -19 0
-117 -29 0
-117 53 0
-117 22 0
-117 5 0
-117 68 0
-117 44 0
-117 -97 0
-117 16 0
-117 99 0
117 19 29 -53 -22 -5 -68 -44 97 -16 -99 0
-118 -42 0
-118 -10 0
-118 -88 0
-118 -77 0
-118 -34 0
-118 22 0
-118 74 0
-118 -76 0
-118 -99 0
-118 -41 0
118 42 10 88 77 34 -22 -74 76 99 41 0
-119 -71 0
-119 -2 0
-119 -72 0
-119 18 0
-119 -29 0
-119 24 0
-119 -82 0
-119 -57 0
-119 89 0
-119 1 0
119 71 2 72 -18 29 -24 82 57 -89 -1 0
-120 89 0
-120 -11 0
-120 37 0
-120 4 0
-120 -23 0
-120 5 0
-120 67 0
-120 -96 0
-120 -18 0
-120 40 0
120 -89 11 -37 -4 23 -5 -67 96 18 -40 0
111 112 113 114 115 116 117 118 119 120 0
-121 87 0
-121 78 0
-121 97 0
-121 -95 0
-121 -45 0
-121 29 0
-121 54 0
-121 -83 0
-121 52 0
-121 50 0
121 -87 -78 -97 95 45 -29 -54 83 -52 -50 0
-122 70 0
-122 30 0
-122 -85 0
-122 96 0
-122 90 0
-122 64 0
-122 -69 0
-122 56 0
-122 29 0
-122 -88 0
122 -70 -30 85 -96 -90 -64 69 -56 -29 88 0
-123 14 0
-123 -58 0
-123 -3 0
-123 10 0
-123 21 0
-123 -46 0
-123 69 0
-123 -15 0
-123 -48 0
-123 51 0
123 -14 58 3 -10 -21 46 -69 15 48 -51 0
-124 9 0
-124 -60 0
-124 -29 0
-124 67 0
-124 44 0
-124 -59 0
-124 41 0
-124 -21 0
-124 -62 0
-124 -7 0
124 -9 60 29 -67 -44 59 -41 21 62 7 0
-125 49 0
-125 53 0
-125 -51 0
-125 87 0
-125 -72 0
-125 54 0
-125 22 0
-125 -44 0
-125 -55 0
-125 83 0
125 -49 -53 51 -87 72 -54 -22 44 55 -83 0
-126 4 0
-126 -34 0
-126 50 0
-126 -81 0
-126 80 0
-126 62 0
-126 -57 0
-126 -98 0
-126 94 0
-126 -87 0
126 -4 34 -50 81 -80 -62 57 98 -94 87 0
-127 76 0
-127 -77 0
-127 35 0
-127 -48 0
-127 -90 0
-127 -39 0
-127 18 0
-127 19 0
-127 -54 0
-127 31 0
127 -76 77 -35 48 90 39 -18 -19 54 -31 0
-128 -82 0
-128 -32 0
-128 -53 0
-128 -2 0
-128 -97 0
-128 -22 0
-128 -25 0
-128 44 0
-128 -17 0
-128 -68 0
128 82 32 53 2 97 22 25 -44 17 68 0
-129 86 0
-129 -44 0
-129 15 0
-129 77 0
-129 41 0
-129 -67 0
-129 90 0
-129 12 0
-129 4 0
-129 1 0
129 -86 44 -15 -77 -41 67 -90 -12 -4 -1 0
-130 -48 0
-130 -36 0
-130 -39 0
-130 94 0
-130 29 0
-130 -77 0
-130 41 0
-130 54 0
-130 -85 0
-130 -56 0
130 48 36 39 -94 -29 77 -41 -54 85 56 0
121 122 123 124 125 126 127 128 129 130 0
-131 70 0
-131 -73 0
-131 98 0
-131 31 0
-131 -93 0
-131 10 0
-131 -89 0
-131 -29 0
-131 -4 0
-131 -52 0
131 -70 73 -98 -31 93 -10 89 29 4 52 0
-132 -47 0
-132 86 0
-132 -63 0
-132 40 0
-132 10 0
-132 85 0
-132 -61 0
-132 53 0
-132 -49 0
-132 -45 0
132 47 -86 63 -40 -10 -85 61 -53 49 45 0
-133 60 0
-133 92 0
-133 -14 0
-133 -96 0
-133 36 0
-133 -97 0
-133 95 0
-133 -83 0
-133 3 0
-133 -28 0
133 -60 -92 14 96 -36 97 -95 83 -3 28 0
-134 20 0
-134 -3 0
-134 47 0
-134 15 0
-134 79 0
-134 -89 0
-134 -50 0
-134 -98 0
-134 34 0
-134 43 0
134 -20 3 -47 -15 -79 89 50 98 -34 -43 0
-135 61 0
-135 -30 0
-135 -64 0
-135 -88 0
-135 -81 0
-135 -52 0
-135 100 0
-135 91 0
-135 36 0
-135 96 0
135 -61 30 64 88 81 52 -100 -91 -36 -96 0
-136 59 0
-136 -16 0
-136 48 0
-136 -50 0
-136 -2 0
-136 32 0
-136 -94 0
-136 86 0
-136 26 0
-136 -85 0
136 -59 16 -48 50 2 -32 94 -86 -26 85 0
-137 -80 0
-137 41 0
-137 -6 0
-137 36 0
-137 87 0
-137 85 0
-137 71 0
-137 -61 0
-137 45 0
-137 81 0
137 80 -41 6 -36 -87 -85 -71 61 -45 -81 0
-138 -23 0
-138 -69 0
-138 76 0
-138 42 0
-138 45 0
-138 -3 0
-138 -49 0
-138 79 0
-138 5 0
-138 -2 0
138 23 69 -76 -42 -45 3 49 -79 -5 2 0
-139 -5 0
-139 29 0
-139 82 0
-139 -92 0
-139 94 0
-139 -99 0
-139 -35 0
-139 2 0
-139 10 0
-139 50 0
139 5 -29 -82 92 -94 99 35 -2 -10 -50 0
-140 73 0
-140 -80 0
-140 -75 0
-140 97 0
-140 79 0
-140 -54 0
-140 -77 0
-140 -87 0
-140 -8 0
-140 -33 0
140 -73 80 75 -97 -79 54 77 87 8 33 0
131 132 133 134 135 136 137 138 139 140 0
-141 -2 0
-141 76 0
-141 -53 0
-141 84 0
-141 -24 0
-141 50 0
-141 4 0
-141 -29 0
-141 -98 0
-141 13 0
141 2 -76 53 -84 24 -50 -4 29 98 -13 0
-142 -93 0
-142 -37 0
-142 -26 0
-142 -23 0
-142 61 0
-142 12 0
-142 -96 0
-142 -62 0
-142 92 0
-142 -16 0
142 93 37 26 23 -61 -12 96 62 -92 16 0
-143 88 0
-143 8 0
-143 -18 0
-143 -49 0
-143 -33 0
-143 92 0
-143 89 0
-143 81 0
-143 75 0
-143 -82 0
143 -88 -8 18 49 33 -92 -89 -81 -75 82 0
-144 -64 0
-144 -55 0
-144 -38 0
-144 -62 0
-144 58 0
-144 -99 0
-144 -91 0
-144 -45 0
-144 -40 0
-144 -72 0
144 64 55 38 62 -58 99 91 45 40 72 0
-145 -61 0
-145 -90 0
-145 -62 0
-145 16 0
-145 46 0
-145 18 0
-145 54 0
-145 47 0
-145 93 0
-145 -12 0
145 61 90 62 -16 -46 -18 -54 -47 -93 12 0
-146 27 0
-146 92 0
-146 -26 0
-146 73 0
-146 -55 0
-146 30 0
-146 -14 0
-146 88 0
-146 -44 0
-146 -32 0
146 -27 -92 26 -73 55 -30 14 -88 44 32 0
-147 22 0
-147 -79 0
-147 94 0
-147 61 0
-147 83 0
-147 59 0
-147 55 0
-147 100 0
-147 29 0
-147 -44 0
147 -22 79 -94 -61 -83 -59 -55 -100 -29 44 0
-148 9 0
-148 -8 0
-148 83 0
-148 -66 0
-148 -59 0
-148 -100 0
-148 -52 0
-148 84 0
-148 -56 0
-148 19 0
148 -9 8 -83 66 59 100 52 -84 56 -19 0
-149 28 0
-149 -89 0
-149 82 0
-149 -10 0
-149 -23 0
-149 -29 0
-149 39 0
-149 85 0
-149 -20 0
-149 48 0
149 -28 89 -82 10 23 29 -39 -85 20 -48 0
-150 -27 0
-150 -36 0
-150 -35 0
-150 34 0
-150 -40 0
-150 47 0
-150 71 0
-150 -24 0
-150 76 0
-150 14 0
150 27 36 35 -34 40 -47 -71 24 -76 -14 0
141 142 143 144 145 146 147 148 149 150 0
-151 -62 0
-151 12 0
-151 41 0
-151 -81 0
-151 -99 0
-151 -25 0
-151 -90 0
-151 53 0
-151 46 0
-151 -50 0
151 62 -12 -41 81 99 25 90 -53 -46 50 0
-152 29 0
-152 59 0
-152 -75 0
-152 97 0
-152 88 0
-152 -30 0
-152 57 0
-152 -69 0
-152 -10 0
-152 22 0
152 -29 -59 75 -97 -88 30 -57 69 10 -22 0
-153 -27 0
-153 -38 0
-153 94 0
-153 53 0
-153 -37 0
-153 -80 0
-153 -74 0
-153 63 0
-153 72 0
-153 35 0
153 27 38 -94 -53 37 80 74 -63 -72 -35 0
-154 -14 0
-154 98 0
-154 -49 0
-154 -43 0
-154 -42 0
-154 -78 0
-154 -74 0
-154 -30 0
-154 -94 0
-154 -69 0
154 14 -98 49 43 42 78 74 30 94 69 0
-155 85 0
-155 65 0
-155 -41 0
-155 -51 0
-155 62 0
-155 -66 0
-155 -17 0
-155 -79 0
-155 1 0
-155 -8 0
155 -85 -65 41 51 -62 66 17 79 -1 8 0
-156 65 0
-156 -24 0
-156 -17 0
-156 -96 0
-156 -23 0
-156 48 0
-156 -33 0
-156 -66 0
-156 -45 0
-156 52 0
156 -65 24 17 96 23 -48 33 66 45 -52 0
-157 58 0
-157 41 0
-157 99 0
-157 -65 0
-157 -3 0
-157 -30 0
-157 59 0
-157 12 0
-157 -91 0
-157 -38 0
157 -58 -41 -99 65 3 30 -59 -12 91 38 0
-158 -3 0
-158 43 0
-158 -30 0
-158 10 0
-158 -62 0
-158 69 0
-158 36 0
-158 -2 0
-158 19 0
-158 -13 0
158 3 -43 30 -10 62 -69 -36 2 -19 13 0
-159 4 0
-159 -98 0
-159 -19 0
-159 87 0
-159 -77 0
-159 -42 0
-159 -91 0
-159 93 0
-159 -28 0
-159 83 0
159 -4 98 19 -87 77 42 91 -93 28 -83 0
-160 -88 0
-160 46 0
-160 -15 0
-160 -59 0
-160 53 0
-160 90 0
-160 -51 0
-160 44 0
-160 63 0
-160 -68 0
160 88 -46 15 59 -53 -90 51 -44 -63 68 0
151 152 153 154 155 156 157 158 159 160 0
-161 21 0
-161 -84 0
-161 -6 0
-161 -34 0
-161 31 0
-161 -52 0
-161 -78 0
-161 -32 0
-161 -19 0
-161 81 0
161 -21 84 6 34 -31 52 78 32 19 -81 0
-162 -96 0
-162 -23 0
-162 -99 0
-162 -71 0
-162 -84 0
-162 -9 0
-162 -35 0
-162 53 0
-162 80 0
-162 -74 0
162 96 23 99 71 84 9 35 -53 -80 74 0
-163 55 0
-163 -54 0
-163 7 0
-163 56 0
-163 -11 0
-163 -87 0
-163 51 0
-163 86 0
-163 -85 0
-163 78 0
163 -55 54 -7 -56 11 87 -51 -86 85 -78 0
-164 -7 0
-164 24 0
-164 79 0
-164 82 0
-164 86 0
-164 -14 0
-164 -69 0
-164 100 0
-164 62 0
-164 -4 0
164 7 -24 -79 -82 -86 14 69 -100 -62 4 0
-165 62 0
-165 31 0
-165 97 0
-165 52 0
-165 -60 0
-165 48 0
-165 83 0
-165 79 0
-165 -58 0
-165 78 0
165 -62 -31 -97 -52 60 -48 -83 -79 58 -78 0
-166 -25 0
-166 22 0
-166 -57 0
-166 -43 0
-166 15 0
-166 66 0
-166 -84 0
-166 41 0
-166 -79 0
-166 -4 0
166 25 -22 57 43 -15 -66 84 -41 79 4 0
-167 89 0
-167 -25 0
-167 39 0
-167 33 0
-167 31 0
-167 99 0
-167 -54 0
-167 -82 0
-167 -6 0
-167 -55 0
167 -89 25 -39 -33 -31 -99 54 82 6 55 0
-168 71 0
-168 5 0
-168 32 0
-168 56 0
-168 -11 0
-168 -98 0
-168 55 0
-168 53 0
-168 -15 0
-168 -63 0
168 -71 -5 -32 -56 11 98 -55 -53 15 63 0
-169 -87 0
-169 27 0
-169 67 0
-169 -39 0
-169 -40 0
-169 11 0
-169 72 0
-169 18 0
-169 -10 0
-169 78 0
169 87 -27 -67 39 40 -11 -72 -18 10 -78 0
-170 66 0
-170 54 0
-170 16 0
-170 79 0
-170 67 0
-170 55 0
-170 89 0
-170 -22 0
-170 -14 0
-170 -28 0
170 -66 -54 -16 -79 -67 -55 -89 22 14 28 0
161 162 163 164 165 166 167 168 169 170 0
-171 62 0
-171 4 0
-171 -56 0
-171 -11 0
-171 -91 0
-171 70 0
-171 -25 0
-171 -83 0
-171 -69 0
-171 36 0
171 -62 -4 56 11 91 -70 25 83 69 -36 0
-172 -87 0
-172 12 0
-172 26 0
-172 81 0
-172 46 0
-172 65 0
-172 -97 0
-172 -69 0
-172 -23 0
-172 -74 0
172 87 -12 -26 -81 -46 -65 97 69 23 74 0
-173 77 0
-173 -100 0
-173 18 0
-173 -46 0
-173 -42 0
-173 -67 0
-173 -68 0
-173 47 0
-173 -71 0
-173 -89 0
173 -77 100 -18 46 42 67 68 -47 71 89 0
-174 78 0
-174 -53 0
-174 52 0
-174 -83 0
-174 -40 0
-174 -86 0
-174 -82 0
-174 -92 0
-174 10 0
-174 59 0
174 -78 53 -52 83 40 86 82 92 -10 -59 0
-175 -62 0
-175 -85 0
-175 90 0
-175 77 0
-175 -29 0
-175 -9 0
-175 -11 0
-175 -69 0
-175 82 0
-175 -70 0
175 62 85 -90 -77 29 9 11 69 -82 70 0
-176 -39 0
-176 -76 0
-176 -13 0
-176 25 0
-176 -53 0
-176 -95 0
-176 -97 0
-176 -18 0
-176 -99 0
-176 31 0
176 39 76 13 -25 53 95 97 18 99 -31 0
-177 -15 0
-177 9 0
-177 -29 0
-177 25 0
-177 -48 0
-177 85 0
-177 72 0
-177 -83 0
-177 -7 0
-177 -89 0
177 15 -9 29 -25 48 -85 -72 83 7 89 0
-178 24 0
-178 4 0
-178 28 0
-178 -61 0
-178 9 0
-178 72 0
-178 -69 0
-178 -65 0
-178 97 0
-178 78 0
178 -24 -4 -28 61 -9 -72 69 65 -97 -78 0
-179 29 0
-179 -61 0
-179 -11 0
-179 95 0
-179 -7 0
-179 -86 0
-179 -45 0
-179 -49 0
-179 31 0
-179 -39 0
179 -29 61 11 -95 7 86 45 49 -31 39 0
-180 10 0
-180 44 0
-180 -64 0
-180 -60 0
-180 -93 0
-180 82 0
-180 11 0
-180 59 0
-180 -20 0
-180 12 0
180 -10 -44 64 60 93 -82 -11 -59 20 -12 0
171 172 173 174 175 176 177 178 179 180 0
-181 -50 0
-181 88 0
-181 -43 0
-181 -14 0
-181 -15 0
-181 -61 0
-181 98 0
-181 79 0
-181 -2 0
-181 -30 0
181 50 -88 43 14 15 61 -98 -79 2 30 0
-182 85 0
-182 18 0
-182 -97 0
-182 95 0
-182 -52 0
-182 -45 0
-182 8 0
-182 43 0
-182 17 0
-182 -48 0
182 -85 -18 97 -95 52 45 -8 -43 -17 48 0
-183 34 0
-183 -76 0
-183 71 0
-183 92 0
-183 -57 0
-183 69 0
-183 -8 0
-183 3 0
-183 -21 0
-183 15 0
183 -34 76 -71 -92 57 -69 8 -3 21 -15 0
-184 40 0
-184 69 0
-184 64 0
-184 68 0
-184 55 0
-184 96 0
-184 21 0
-184 3 0
-184 -89 0
-184 -72 0
184 -40 -69 -64 -68 -55 -96 -21 -3 89 72 0
-185 -40 0
-185 41 0
-185 -29 0
-185 19 0
-185 31 0
-185 88 0
-185 81 0
-185 -63 0
-185 71 0
-185 27 0
185 40 -41 29 -19 -31 -88 -81 63 -71 -27 0
-186 95 0
-186 -50 0
-186 -43 0
-186 64 0
-186 35 0
-186 -8 0
-186 15 0
-186 -40 0
-186 -14 0
-186 96 0
186 -95 50 43 -64 -35 8 -15 40 14 -96 0
-187 82 0
-187 -58 0
-187 -72 0
-187 -29 0
-187 73 0
-187 -64 0
-187 -26 0
-187 -71 0
-187 57 0
-187 23 0
187 -82 58 72 29 -73 64 26 71 -57 -23 0
-188 -64 0
-188 -19 0
-188 92 0
-188 35 0
-188 -100 0
-188 -22 0
-188 -59 0
-188 41 0
-188 -17 0
-188 73 0
188 64 19 -92 -35 100 22 59 -41 17 -73 0
-189 13 0
-189 66 0
-189 -80 0
-189 -86 0
-189 14 0
-189 82 0
-189 -22 0
-189 -33 0
-189 4 0
-189 -26 0
189 -13 -66 80 86 -14 -82 22 33 -4 26 0
-190 -15 0
-190 3 0
-190 -98 0
-190 -8 0
-190 -52 0
-190 43 0
-190 -63 0
-190 87 0
-190 14 0
-190 95 0
190 15 -3 98 8 52 -43 63 -87 -14 -95 0
181 182 183 184 185 186 187 188 189 190 0
-191 62 0
-191 81 0
-191 100 0
-191 50 0
-191 36 0
-191 74 0
-191 -22 0
-191 -2 0
-191 -58 0
-191 88 0
191 -62 -81 -100 -50 -36 -74 22 2 58 -88 0
-192 98 0
-192 -50 0
-192 42 0
-192 -54 0
-192 -20 0
-192 87 0
-192 -30 0
-192 11 0
-192 69 0
-192 -83 0
192 -98 50 -42 54 20 -87 30 -11 -69 83 0
-193 15 0
-193 64 0
-193 57 0
-193 62 0
-193 39 0
-193 -54 0
-193 -80 0
-193 18 0
-193 -32 0
-193 -78 0
193 -15 -64 -57 -62 -39 54 80 -18 32 78 0
-194 45 0
-194 55 0
-194 54 0
-194 -91 0
-194 -33 0
-194 -8 0
-194 19 0
-194 13 0
-194 44 0
-194 -15 0
194 -45 -55 -54 91 33 8 -19 -13 -44 15 0
-195 -18 0
-195 -97 0
-195 36 0
-195 48 0
-195 52 0
-195 91 0
-195 84 0
-195 6 0
-195 41 0
-195 50 0
195 18 97 -36 -48 -52 -91 -84 -6 -41 -50 0
-196 -18 0
-196 83 0
-196 -48 0
-196 -95 0
-196 -56 0
-196 28 0
-196 -91 0
-196 93 0
-196 -67 0
-196 -47 0
196 18 -83 48 95 56 -28 91 -93 67 47 0
-197 62 0
-197 -54 0
-197 -98 0
-197 -67 0
-197 4 0
-197 84 0
-197 99 0
-197 -50 0
-197 -94 0
-197 96 0
197 -62 54 98 67 -4 -84 -99 50 94 -96 0
-198 46 0
-198 70 0
-198 77 0
-198 14 0
-198 -83 0
-198 -63 0
-198 -35 0
-198 -10 0
-198 -68 0
-198 74 0
198 -46 -70 -77 -14 83 63 35 10 68 -74 0
-199 -6 0
-199 -49 0
-199 76 0
-199 -69 0
-199 -7 0
-199 1 0
-199 72 0
-199 59 0
-199 -61 0
-199 40 0
199 6 49 -76 69 7 -1 -72 -59 61 -40 0
-200 -33 0
-200 -36 0
-200 -63 0
-200 -81 0
-200 76 0
-200 15 0
-200 -4 0
-200 -28 0
-200 -88 0
-200 -34 0
200 33 36 63 81 -76 -15 4 28 88 34 0
191 192 193 194 195 196 197 198 199 200 0
